(set-info :smt-lib-version 2.7)
(set-logic ALL)
(set-info :source |
Generated on: 2026-06-22
Generator: pog2smtlib-2.7 github.com/CLEARSY/pog2smtlib-2.7 (-l HO_ALL -rpX)
Application: Discharging a proof obligation generated by aTelierB from an anonymized B machine
Target solver: CVC5 (--mbqi --enum-inst)
Time limit: 1200.0
|)
(set-info :license "www.gnu.org/licenses/gpl-3.0.en.html")
(set-info :category "industrial")
(set-info :status unknown)

(set-option :print-success false)
(define-sort |Z| () Int)
(declare-sort P 1)
(define-sort |POW Z| () (P |Z|))
(define-const MININT |Z| (- 2147483648))
(define-const MAXINT |Z| 2147483647)
(declare-fun |set.in Z| (|Z| |POW Z|) Bool)
(declare-const s816 |Z|)
(declare-const s385 |POW Z|)
(declare-const s777 |Z|)
(declare-const s814 |Z|)
(declare-const INT |POW Z|)
(assert (!
  (forall ((e |Z|)) (= (|set.in Z| e INT) (and (<= MININT e) (<= e MAXINT))))
  :named |ax.set.in.INT|))
(assert (!
  (forall ((s |POW Z|) (t |POW Z|))
    (=
      (= s t)
      (forall ((e |Z|)) (= (|set.in Z| e s) (|set.in Z| e t)))))
  :named |ax.set.eq Z|))
(assert (!
  (= s385 INT)
  :named |Define:ctx:345|))
(assert (!
  (|set.in Z| s777 s385)
  :named |Define:inv:1|))
(assert (!
  (|set.in Z| s814 s385)
  :named |Define:inv:38|))
(assert (!
  (|set.in Z| s816 s385)
  :named |Define:inv:40|))
(assert (!
  (not
    (|set.in Z| (+ s816 1) s385))
  :named |Goal|))
(check-sat)
(exit)
